DATASET = "thpack2";
INSTANCE = "079";

WIDTH = 233;
HEIGHT = 220;
LENGTH = 587;

NO_OF_SHAPES = 5;
size = [|
  64,48,46 |
  79,25,22 |
  89,85,33 |
  79,66,34 |
  79,54,31 |
|];

verticality = [|
  1,1,1 |
  0,1,1 |
  0,0,1 |
  0,1,1 |
  0,1,1 |
|];

box_count = [
  50,
  43,
  39,
  35,
  39,
];
